NAME : A-n61-k9
COMMENT : (Augerat et al, Min no of trucks: 9, Best value: 1035)
TYPE : CVRP
DIMENSION : 61
EDGE_WEIGHT_TYPE : EUC_2D 
CAPACITY : 100
NODE_COORD_SECTION 
 1 61 37
 2 93 57
 3 15 67
 4 23 43
 5 53 5
 6 13 75
 7 29 73
 8 47 37
 9 23 71
 10 67 45
 11 21 49
 12 93 43
 13 67 13
 14 69 25
 15 53 35
 16 25 39
 17 85 69
 18 81 27
 19 77 79
 20 45 43
 21 31 75
 22 49 99
 23 63 9
 24 47 37
 25 33 47
 26 39 69
 27 49 3
 28 49 87
 29 87 39
 30 37 91
 31 19 33
 32 97 35
 33 31 5
 34 35 25
 35 79 61
 36 73 73
 37 35 95
 38 5 43
 39 19 45
 40 71 39
 41 35 63
 42 27 73
 43 31 21
 44 47 9
 45 87 45
 46 1 49
 47 1 77
 48 63 73
 49 79 71
 50 21 55
 51 65 23
 52 65 47
 53 97 23
 54 23 71
 55 5 81
 56 53 27
 57 57 85
 58 89 23
 59 51 65
 60 13 49
 61 91 41
DEMAND_SECTION 
1 0 
2 23 
3 17 
4 12 
5 6 
6 22 
7 3 
8 24 
9 24 
10 11 
11 7 
12 12 
13 8 
14 14 
15 20 
16 16 
17 16 
18 4 
19 9 
20 18 
21 14 
22 10 
23 19 
24 22 
25 19 
26 9 
27 18 
28 2 
29 18 
30 11 
31 19 
32 18 
33 15 
34 4 
35 12 
36 8 
37 18 
38 12 
39 72 
40 2 
41 5 
42 14 
43 11 
44 19 
45 16 
46 19 
47 3 
48 12 
49 10 
50 20 
51 7 
52 13 
53 16 
54 23 
55 22 
56 18 
57 6 
58 12 
59 27 
60 9 
61 15 
DEPOT_SECTION 
 1  
 -1  
EOF 
[[  19.   33. -174.   19.]
 [  53.   35. -165.   20.]
 [  35.   25. -155.    4.]
 [  31.   21. -151.   11.]
 [  31.    5. -133.   15.]
 [  53.   27. -128.   18.]
 [  47.    9. -116.   19.]
 [  49.    3. -109.   18.]
 [  53.    5. -104.    6.]
 [  63.    9.  -85.   19.]
 [  67.   13.  -75.    8.]
 [  65.   23.  -74.    7.]
 [  69.   25.  -56.   14.]
 [  81.   27.  -26.    4.]
 [  89.   23.  -26.   12.]
 [  97.   23.  -21.   16.]
 [  97.   35.   -3.   18.]
 [  87.   39.    4.   18.]
 [  91.   41.    7.   15.]
 [  93.   43.   10.   12.]
 [  71.   39.   11.    2.]
 [  87.   45.   17.   16.]
 [  93.   57.   32.   23.]
 [  85.   69.   53.   16.]
 [  67.   45.   53.   11.]
 [  79.   61.   53.   12.]
 [  79.   71.   62.   10.]
 [  65.   47.   68.   13.]
 [  77.   79.   69.    9.]
 [  73.   73.   71.    8.]
 [  63.   73.   86.   12.]
 [  57.   85.   94.    6.]
 [  49.   99.  100.   10.]
 [  49.   87.  103.    2.]
 [  51.   65.  109.   27.]
 [  37.   91.  113.   11.]
 [  35.   95.  114.   18.]
 [  39.   69.  124.    9.]
 [  31.   75.  128.   14.]
 [  29.   73.  131.    3.]
 [  27.   73.  133.   14.]
 [  35.   63.  135.    5.]
 [  23.   71.  138.   24.]
 [  23.   71.  138.   23.]
 [  13.   75.  141.   22.]
 [   5.   81.  141.   22.]
 [   1.   77.  146.    3.]
 [  15.   67.  146.   17.]
 [  21.   55.  155.   20.]
 [  45.   43.  159.   18.]
 [  33.   47.  160.   19.]
 [  21.   49.  163.    7.]
 [  13.   49.  165.    9.]
 [   1.   49.  168.   19.]
 [  19.   45.  169.   72.]
 [  23.   43.  171.   12.]
 [   5.   43.  173.   12.]
 [  25.   39.  176.   16.]
 [  47.   37.  180.   22.]
 [  47.   37.  180.   24.]]